11238379851
11238379851
11238379851
11238379851
11238379851
11238379851
11238379851
11238379851
11238379851
11238379851
1573327186
1573327186
1573327186
1573327186
1573327186
1573327186
1573327186
1573327186
1573327186
1573327186
1536827840
1536827840
1536827840
1536827840
1536827840
1536827840
1536827840
1536827840
1536827840
1536827840
1857550172
1857550172
1857550172
1857550172
1857550172
1857550172
1857561196
1857550172
1857550172
1857550172
1558838421
1558838421
1558838421
1558838421
1558838421
1558838421
1558838421
1558838421
1558838421
1558838421
1622578648
1622580738
1622579007
1622578648
1622578648
1622578648
1622578648
1622579007
1622578648
1622578648
